p cnf 808 1857
1 0
2 0
3 0
4 0
5 0
6 0
7 0
8 0
9 0
10 0
-11 0
-12 0
-13 0
-14 0
-15 0
-16 0
-17 0
-18 0
-19 0
-20 0
21 22 0
23 22 0
-21 -23 -22 0
-1 22 -24 0
1 -22 -24 0
24 -22 -1 0
1 22 24 0
-24 0
25 26 0
27 26 0
-25 -27 -26 0
-23 26 -28 0
23 -26 -28 0
28 -26 -23 0
23 26 28 0
-28 0
25 29 0
30 29 0
-25 -30 -29 0
-27 29 -31 0
27 -29 -31 0
31 -29 -27 0
27 29 31 0
-31 0
32 33 0
34 33 0
-32 -34 -33 0
-2 33 -35 0
2 -33 -35 0
35 -33 -2 0
2 33 35 0
-35 0
36 37 0
38 37 0
-36 -38 -37 0
-34 37 -39 0
34 -37 -39 0
39 -37 -34 0
34 37 39 0
-39 0
38 -40 0
40 -38 0
41 42 0
43 42 0
-41 -43 -42 0
-3 42 -44 0
3 -42 -44 0
44 -42 -3 0
3 42 44 0
-44 0
45 46 0
47 46 0
-45 -47 -46 0
-43 46 -48 0
43 -46 -48 0
48 -46 -43 0
43 46 48 0
-48 0
49 50 0
51 50 0
-49 -51 -50 0
-47 50 -52 0
47 -50 -52 0
52 -50 -47 0
47 50 52 0
-52 0
53 54 0
55 54 0
-53 -55 -54 0
-51 54 -56 0
51 -54 -56 0
56 -54 -51 0
51 54 56 0
-56 0
57 58 0
59 58 0
-57 -59 -58 0
-55 58 -60 0
55 -58 -60 0
60 -58 -55 0
55 58 60 0
-60 0
61 62 0
63 62 0
-61 -63 -62 0
-59 62 -64 0
59 -62 -64 0
64 -62 -59 0
59 62 64 0
-64 0
57 65 0
61 65 0
66 65 0
-57 -61 -66 -65 0
-63 65 -67 0
63 -65 -67 0
67 -65 -63 0
63 65 67 0
-67 0
68 69 0
70 69 0
-68 -70 -69 0
-4 69 -71 0
4 -69 -71 0
71 -69 -4 0
4 69 71 0
-71 0
72 73 0
74 73 0
-72 -74 -73 0
-70 73 -75 0
70 -73 -75 0
75 -73 -70 0
70 73 75 0
-75 0
74 -76 0
76 -74 0
77 78 0
79 78 0
-77 -79 -78 0
-5 78 -80 0
5 -78 -80 0
80 -78 -5 0
5 78 80 0
-80 0
79 -81 0
81 -79 0
82 83 0
84 83 0
-82 -84 -83 0
-6 83 -85 0
6 -83 -85 0
85 -83 -6 0
6 83 85 0
-85 0
86 87 0
88 87 0
-86 -88 -87 0
-84 87 -89 0
84 -87 -89 0
89 -87 -84 0
84 87 89 0
-89 0
90 91 0
92 91 0
-90 -92 -91 0
-88 91 -93 0
88 -91 -93 0
93 -91 -88 0
88 91 93 0
-93 0
94 95 0
96 95 0
-94 -96 -95 0
-92 95 -97 0
92 -95 -97 0
97 -95 -92 0
92 95 97 0
-97 0
98 99 0
100 99 0
-98 -100 -99 0
-96 99 -101 0
96 -99 -101 0
101 -99 -96 0
96 99 101 0
-101 0
94 102 0
98 102 0
103 102 0
-94 -98 -103 -102 0
-100 102 -104 0
100 -102 -104 0
104 -102 -100 0
100 102 104 0
-104 0
105 106 0
107 106 0
-105 -107 -106 0
-7 106 -108 0
7 -106 -108 0
108 -106 -7 0
7 106 108 0
-108 0
109 110 0
111 110 0
-109 -111 -110 0
-107 110 -112 0
107 -110 -112 0
112 -110 -107 0
107 110 112 0
-112 0
113 114 0
115 114 0
-113 -115 -114 0
-111 114 -116 0
111 -114 -116 0
116 -114 -111 0
111 114 116 0
-116 0
117 118 0
119 118 0
-117 -119 -118 0
-115 118 -120 0
115 -118 -120 0
120 -118 -115 0
115 118 120 0
-120 0
113 121 0
117 121 0
122 121 0
-113 -117 -122 -121 0
-119 121 -123 0
119 -121 -123 0
123 -121 -119 0
119 121 123 0
-123 0
124 125 0
126 125 0
-124 -126 -125 0
-8 125 -127 0
8 -125 -127 0
127 -125 -8 0
8 125 127 0
-127 0
128 129 0
130 129 0
-128 -130 -129 0
-126 129 -131 0
126 -129 -131 0
131 -129 -126 0
126 129 131 0
-131 0
132 133 0
134 133 0
-132 -134 -133 0
-130 133 -135 0
130 -133 -135 0
135 -133 -130 0
130 133 135 0
-135 0
136 137 0
138 137 0
-136 -138 -137 0
-134 137 -139 0
134 -137 -139 0
139 -137 -134 0
134 137 139 0
-139 0
140 141 0
142 141 0
-140 -142 -141 0
-138 141 -143 0
138 -141 -143 0
143 -141 -138 0
138 141 143 0
-143 0
144 145 0
146 145 0
-144 -146 -145 0
-142 145 -147 0
142 -145 -147 0
147 -145 -142 0
142 145 147 0
-147 0
140 148 0
144 148 0
149 148 0
-140 -144 -149 -148 0
-146 148 -150 0
146 -148 -150 0
150 -148 -146 0
146 148 150 0
-150 0
151 152 0
153 152 0
-151 -153 -152 0
-9 152 -154 0
9 -152 -154 0
154 -152 -9 0
9 152 154 0
-154 0
155 156 0
157 156 0
-155 -157 -156 0
-153 156 -158 0
153 -156 -158 0
158 -156 -153 0
153 156 158 0
-158 0
159 160 0
161 160 0
-159 -161 -160 0
-157 160 -162 0
157 -160 -162 0
162 -160 -157 0
157 160 162 0
-162 0
163 164 0
165 164 0
-163 -165 -164 0
-161 164 -166 0
161 -164 -166 0
166 -164 -161 0
161 164 166 0
-166 0
167 168 0
169 168 0
-167 -169 -168 0
-165 168 -170 0
165 -168 -170 0
170 -168 -165 0
165 168 170 0
-170 0
159 171 0
163 171 0
167 171 0
172 171 0
-173 0
-169 171 -174 0
169 -171 -174 0
174 -171 -169 0
169 171 174 0
-174 0
175 176 0
177 176 0
-175 -177 -176 0
-10 176 -178 0
10 -176 -178 0
178 -176 -10 0
10 176 178 0
-178 0
179 180 0
181 180 0
-179 -181 -180 0
-177 180 -182 0
177 -180 -182 0
182 -180 -177 0
177 180 182 0
-182 0
183 184 0
185 184 0
-183 -185 -184 0
-181 184 -186 0
181 -184 -186 0
186 -184 -181 0
181 184 186 0
-186 0
187 188 0
189 188 0
-187 -189 -188 0
-185 188 -190 0
185 -188 -190 0
190 -188 -185 0
185 188 190 0
-190 0
191 192 0
193 192 0
-191 -193 -192 0
-189 192 -194 0
189 -192 -194 0
194 -192 -189 0
189 192 194 0
-194 0
195 196 0
197 196 0
-195 -197 -196 0
-193 196 -198 0
193 -196 -198 0
198 -196 -193 0
193 196 198 0
-198 0
187 199 0
191 199 0
195 199 0
200 199 0
-201 0
-197 199 -202 0
197 -199 -202 0
202 -199 -197 0
197 199 202 0
-202 0
203 204 0
205 204 0
-203 -205 -204 0
-11 204 -206 0
11 -204 -206 0
206 -204 -11 0
11 204 206 0
-206 0
207 208 0
209 208 0
-207 -209 -208 0
-205 208 -210 0
205 -208 -210 0
210 -208 -205 0
205 208 210 0
-210 0
211 212 0
213 212 0
-211 -213 -212 0
-209 212 -214 0
209 -212 -214 0
214 -212 -209 0
209 212 214 0
-214 0
215 216 0
217 216 0
-215 -217 -216 0
-213 216 -218 0
213 -216 -218 0
218 -216 -213 0
213 216 218 0
-218 0
211 219 0
215 219 0
220 219 0
-211 -215 -220 -219 0
-217 219 -221 0
217 -219 -221 0
221 -219 -217 0
217 219 221 0
-221 0
222 223 0
224 223 0
-222 -224 -223 0
-12 223 -225 0
12 -223 -225 0
225 -223 -12 0
12 223 225 0
-225 0
226 227 0
228 227 0
-226 -228 -227 0
-224 227 -229 0
224 -227 -229 0
229 -227 -224 0
224 227 229 0
-229 0
230 231 0
232 231 0
-230 -232 -231 0
-228 231 -233 0
228 -231 -233 0
233 -231 -228 0
228 231 233 0
-233 0
234 235 0
236 235 0
-234 -236 -235 0
-232 235 -237 0
232 -235 -237 0
237 -235 -232 0
232 235 237 0
-237 0
238 239 0
240 239 0
-238 -240 -239 0
-236 239 -241 0
236 -239 -241 0
241 -239 -236 0
236 239 241 0
-241 0
242 243 0
244 243 0
-242 -244 -243 0
-240 243 -245 0
240 -243 -245 0
245 -243 -240 0
240 243 245 0
-245 0
246 247 0
248 247 0
-246 -248 -247 0
-244 247 -249 0
244 -247 -249 0
249 -247 -244 0
244 247 249 0
-249 0
238 250 0
242 250 0
246 250 0
251 250 0
-252 0
-248 250 -253 0
248 -250 -253 0
253 -250 -248 0
248 250 253 0
-253 0
254 255 0
256 255 0
-254 -256 -255 0
-13 255 -257 0
13 -255 -257 0
257 -255 -13 0
13 255 257 0
-257 0
258 259 0
260 259 0
-258 -260 -259 0
-256 259 -261 0
256 -259 -261 0
261 -259 -256 0
256 259 261 0
-261 0
262 263 0
264 263 0
-262 -264 -263 0
-260 263 -265 0
260 -263 -265 0
265 -263 -260 0
260 263 265 0
-265 0
266 267 0
268 267 0
-266 -268 -267 0
-264 267 -269 0
264 -267 -269 0
269 -267 -264 0
264 267 269 0
-269 0
270 271 0
272 271 0
-270 -272 -271 0
-268 271 -273 0
268 -271 -273 0
273 -271 -268 0
268 271 273 0
-273 0
274 275 0
276 275 0
-274 -276 -275 0
-272 275 -277 0
272 -275 -277 0
277 -275 -272 0
272 275 277 0
-277 0
266 278 0
270 278 0
274 278 0
279 278 0
-280 0
-276 278 -281 0
276 -278 -281 0
281 -278 -276 0
276 278 281 0
-281 0
282 283 0
284 283 0
-282 -284 -283 0
-14 283 -285 0
14 -283 -285 0
285 -283 -14 0
14 283 285 0
-285 0
286 287 0
288 287 0
-286 -288 -287 0
-284 287 -289 0
284 -287 -289 0
289 -287 -284 0
284 287 289 0
-289 0
290 291 0
292 291 0
-290 -292 -291 0
-288 291 -293 0
288 -291 -293 0
293 -291 -288 0
288 291 293 0
-293 0
294 295 0
296 295 0
-294 -296 -295 0
-292 295 -297 0
292 -295 -297 0
297 -295 -292 0
292 295 297 0
-297 0
298 299 0
300 299 0
-298 -300 -299 0
-296 299 -301 0
296 -299 -301 0
301 -299 -296 0
296 299 301 0
-301 0
302 303 0
304 303 0
-302 -304 -303 0
-300 303 -305 0
300 -303 -305 0
305 -303 -300 0
300 303 305 0
-305 0
294 306 0
298 306 0
302 306 0
307 306 0
-308 0
-304 306 -309 0
304 -306 -309 0
309 -306 -304 0
304 306 309 0
-309 0
310 311 0
312 311 0
-310 -312 -311 0
-15 311 -313 0
15 -311 -313 0
313 -311 -15 0
15 311 313 0
-313 0
314 315 0
316 315 0
-314 -316 -315 0
-312 315 -317 0
312 -315 -317 0
317 -315 -312 0
312 315 317 0
-317 0
318 319 0
320 319 0
-318 -320 -319 0
-316 319 -321 0
316 -319 -321 0
321 -319 -316 0
316 319 321 0
-321 0
322 323 0
324 323 0
-322 -324 -323 0
-320 323 -325 0
320 -323 -325 0
325 -323 -320 0
320 323 325 0
-325 0
326 327 0
328 327 0
-326 -328 -327 0
-324 327 -329 0
324 -327 -329 0
329 -327 -324 0
324 327 329 0
-329 0
326 330 0
331 330 0
-326 -331 -330 0
-328 330 -332 0
328 -330 -332 0
332 -330 -328 0
328 330 332 0
-332 0
333 334 0
335 334 0
-333 -335 -334 0
-16 334 -336 0
16 -334 -336 0
336 -334 -16 0
16 334 336 0
-336 0
337 338 0
339 338 0
-337 -339 -338 0
-335 338 -340 0
335 -338 -340 0
340 -338 -335 0
335 338 340 0
-340 0
341 342 0
343 342 0
-341 -343 -342 0
-339 342 -344 0
339 -342 -344 0
344 -342 -339 0
339 342 344 0
-344 0
345 346 0
347 346 0
-345 -347 -346 0
-343 346 -348 0
343 -346 -348 0
348 -346 -343 0
343 346 348 0
-348 0
349 350 0
351 350 0
-349 -351 -350 0
-347 350 -352 0
347 -350 -352 0
352 -350 -347 0
347 350 352 0
-352 0
353 354 0
355 354 0
-353 -355 -354 0
-351 354 -356 0
351 -354 -356 0
356 -354 -351 0
351 354 356 0
-356 0
349 357 0
353 357 0
358 357 0
-349 -353 -358 -357 0
-355 357 -359 0
355 -357 -359 0
359 -357 -355 0
355 357 359 0
-359 0
360 361 0
362 361 0
-360 -362 -361 0
-17 361 -363 0
17 -361 -363 0
363 -361 -17 0
17 361 363 0
-363 0
364 365 0
366 365 0
-364 -366 -365 0
-362 365 -367 0
362 -365 -367 0
367 -365 -362 0
362 365 367 0
-367 0
368 369 0
370 369 0
-368 -370 -369 0
-366 369 -371 0
366 -369 -371 0
371 -369 -366 0
366 369 371 0
-371 0
372 373 0
374 373 0
-372 -374 -373 0
-370 373 -375 0
370 -373 -375 0
375 -373 -370 0
370 373 375 0
-375 0
376 377 0
378 377 0
-376 -378 -377 0
-374 377 -379 0
374 -377 -379 0
379 -377 -374 0
374 377 379 0
-379 0
368 380 0
372 380 0
376 380 0
381 380 0
-382 0
-378 380 -383 0
378 -380 -383 0
383 -380 -378 0
378 380 383 0
-383 0
384 385 0
386 385 0
-384 -386 -385 0
-18 385 -387 0
18 -385 -387 0
387 -385 -18 0
18 385 387 0
-387 0
388 389 0
390 389 0
-388 -390 -389 0
-386 389 -391 0
386 -389 -391 0
391 -389 -386 0
386 389 391 0
-391 0
392 393 0
394 393 0
-392 -394 -393 0
-390 393 -395 0
390 -393 -395 0
395 -393 -390 0
390 393 395 0
-395 0
396 397 0
398 397 0
-396 -398 -397 0
-394 397 -399 0
394 -397 -399 0
399 -397 -394 0
394 397 399 0
-399 0
400 401 0
402 401 0
-400 -402 -401 0
-398 401 -403 0
398 -401 -403 0
403 -401 -398 0
398 401 403 0
-403 0
404 405 0
406 405 0
-404 -406 -405 0
-402 405 -407 0
402 -405 -407 0
407 -405 -402 0
402 405 407 0
-407 0
400 408 0
404 408 0
409 408 0
-400 -404 -409 -408 0
-406 408 -410 0
406 -408 -410 0
410 -408 -406 0
406 408 410 0
-410 0
411 412 0
413 412 0
-411 -413 -412 0
-19 412 -414 0
19 -412 -414 0
414 -412 -19 0
19 412 414 0
-414 0
415 416 0
417 416 0
-415 -417 -416 0
-413 416 -418 0
413 -416 -418 0
418 -416 -413 0
413 416 418 0
-418 0
419 420 0
421 420 0
-419 -421 -420 0
-417 420 -422 0
417 -420 -422 0
422 -420 -417 0
417 420 422 0
-422 0
423 424 0
425 424 0
-423 -425 -424 0
-421 424 -426 0
421 -424 -426 0
426 -424 -421 0
421 424 426 0
-426 0
427 428 0
429 428 0
-427 -429 -428 0
-425 428 -430 0
425 -428 -430 0
430 -428 -425 0
425 428 430 0
-430 0
423 431 0
427 431 0
432 431 0
-423 -427 -432 -431 0
-429 431 -433 0
429 -431 -433 0
433 -431 -429 0
429 431 433 0
-433 0
434 435 0
436 435 0
-434 -436 -435 0
-20 435 -437 0
20 -435 -437 0
437 -435 -20 0
20 435 437 0
-437 0
438 439 0
440 439 0
-438 -440 -439 0
-436 439 -441 0
436 -439 -441 0
441 -439 -436 0
436 439 441 0
-441 0
442 443 0
444 443 0
-442 -444 -443 0
-440 443 -445 0
440 -443 -445 0
445 -443 -440 0
440 443 445 0
-445 0
446 447 0
448 447 0
-446 -448 -447 0
-444 447 -449 0
444 -447 -449 0
449 -447 -444 0
444 447 449 0
-449 0
450 451 0
452 451 0
-450 -452 -451 0
-448 451 -453 0
448 -451 -453 0
453 -451 -448 0
448 451 453 0
-453 0
446 454 0
450 454 0
455 454 0
-446 -450 -455 -454 0
-452 454 -456 0
452 -454 -456 0
456 -454 -452 0
452 454 456 0
-456 0
457 458 0
-459 458 0
-457 459 -458 0
21 -458 0
-21 458 0
460 461 0
-462 461 0
-460 462 -461 0
25 -461 0
-25 461 0
463 464 0
-465 464 0
-463 465 -464 0
30 -464 0
-30 464 0
466 467 0
-468 467 0
-466 468 -467 0
32 -467 0
-32 467 0
469 470 0
-471 470 0
-469 471 -470 0
36 -470 0
-36 470 0
472 473 0
-474 473 0
-472 474 -473 0
40 -473 0
-40 473 0
475 476 0
-477 476 0
-475 477 -476 0
41 -476 0
-41 476 0
478 479 0
-480 479 0
-478 480 -479 0
45 -479 0
-45 479 0
481 482 0
-483 482 0
-481 483 -482 0
49 -482 0
-49 482 0
484 485 0
-486 485 0
-484 486 -485 0
53 -485 0
-53 485 0
487 488 0
-489 488 0
-487 489 -488 0
57 -488 0
-57 488 0
490 491 0
-492 491 0
-490 492 -491 0
61 -491 0
-61 491 0
493 494 0
-495 494 0
-493 495 -494 0
66 -494 0
-66 494 0
496 497 0
-498 497 0
-496 498 -497 0
68 -497 0
-68 497 0
499 500 0
-501 500 0
-499 501 -500 0
72 -500 0
-72 500 0
502 503 0
-504 503 0
-502 504 -503 0
76 -503 0
-76 503 0
505 506 0
-507 506 0
-505 507 -506 0
77 -506 0
-77 506 0
508 509 0
-510 509 0
-508 510 -509 0
81 -509 0
-81 509 0
511 512 0
-513 512 0
-511 513 -512 0
82 -512 0
-82 512 0
514 515 0
-516 515 0
-514 516 -515 0
86 -515 0
-86 515 0
517 518 0
-519 518 0
-517 519 -518 0
90 -518 0
-90 518 0
520 521 0
-522 521 0
-520 522 -521 0
94 -521 0
-94 521 0
523 524 0
-525 524 0
-523 525 -524 0
98 -524 0
-98 524 0
526 527 0
-528 527 0
-526 528 -527 0
103 -527 0
-103 527 0
529 530 0
-531 530 0
-529 531 -530 0
105 -530 0
-105 530 0
532 533 0
-534 533 0
-532 534 -533 0
109 -533 0
-109 533 0
535 536 0
-537 536 0
-535 537 -536 0
113 -536 0
-113 536 0
538 539 0
-540 539 0
-538 540 -539 0
117 -539 0
-117 539 0
541 542 0
-543 542 0
-541 543 -542 0
122 -542 0
-122 542 0
544 545 0
-546 545 0
-544 546 -545 0
124 -545 0
-124 545 0
547 548 0
-549 548 0
-547 549 -548 0
128 -548 0
-128 548 0
550 551 0
-552 551 0
-550 552 -551 0
132 -551 0
-132 551 0
553 554 0
-555 554 0
-553 555 -554 0
136 -554 0
-136 554 0
556 557 0
-558 557 0
-556 558 -557 0
140 -557 0
-140 557 0
559 560 0
-561 560 0
-559 561 -560 0
144 -560 0
-144 560 0
562 563 0
-564 563 0
-562 564 -563 0
149 -563 0
-149 563 0
565 566 0
-567 566 0
-565 567 -566 0
151 -566 0
-151 566 0
568 569 0
-570 569 0
-568 570 -569 0
155 -569 0
-155 569 0
571 572 0
-573 572 0
-571 573 -572 0
159 -572 0
-159 572 0
574 575 0
-576 575 0
-574 576 -575 0
163 -575 0
-163 575 0
577 578 0
-579 578 0
-577 579 -578 0
167 -578 0
-167 578 0
580 581 0
-582 581 0
-580 582 -581 0
172 -581 0
-172 581 0
583 584 0
-585 584 0
-583 585 -584 0
175 -584 0
-175 584 0
586 587 0
-588 587 0
-586 588 -587 0
179 -587 0
-179 587 0
589 590 0
-591 590 0
-589 591 -590 0
183 -590 0
-183 590 0
592 593 0
-594 593 0
-592 594 -593 0
187 -593 0
-187 593 0
595 596 0
-597 596 0
-595 597 -596 0
191 -596 0
-191 596 0
598 599 0
-600 599 0
-598 600 -599 0
195 -599 0
-195 599 0
601 602 0
-603 602 0
-601 603 -602 0
200 -602 0
-200 602 0
604 605 0
605 -606 0
-604 606 -605 0
203 -605 0
-203 605 0
607 608 0
-609 608 0
-607 609 -608 0
207 -608 0
-207 608 0
610 611 0
-612 611 0
-610 612 -611 0
211 -611 0
-211 611 0
613 614 0
-615 614 0
-613 615 -614 0
215 -614 0
-215 614 0
616 617 0
-618 617 0
-616 618 -617 0
220 -617 0
-220 617 0
619 620 0
-621 620 0
-619 621 -620 0
222 -620 0
-222 620 0
622 623 0
623 -624 0
-622 624 -623 0
226 -623 0
-226 623 0
625 626 0
-627 626 0
-625 627 -626 0
230 -626 0
-230 626 0
628 629 0
629 -630 0
-628 630 -629 0
234 -629 0
-234 629 0
631 632 0
-633 632 0
-631 633 -632 0
238 -632 0
-238 632 0
634 635 0
-636 635 0
-634 636 -635 0
242 -635 0
-242 635 0
637 638 0
638 -639 0
-637 639 -638 0
246 -638 0
-246 638 0
640 641 0
-642 641 0
-640 642 -641 0
251 -641 0
-251 641 0
643 644 0
-645 644 0
-643 645 -644 0
254 -644 0
-254 644 0
646 647 0
647 -648 0
-646 648 -647 0
258 -647 0
-258 647 0
649 650 0
-651 650 0
-649 651 -650 0
262 -650 0
-262 650 0
652 653 0
-654 653 0
-652 654 -653 0
266 -653 0
-266 653 0
655 656 0
656 -657 0
-655 657 -656 0
270 -656 0
-270 656 0
658 659 0
-660 659 0
-658 660 -659 0
274 -659 0
-274 659 0
661 662 0
662 -663 0
-661 663 -662 0
279 -662 0
-279 662 0
664 665 0
-666 665 0
-664 666 -665 0
282 -665 0
-282 665 0
667 668 0
-669 668 0
-667 669 -668 0
286 -668 0
-286 668 0
670 671 0
671 -672 0
-670 672 -671 0
290 -671 0
-290 671 0
673 674 0
-675 674 0
-673 675 -674 0
294 -674 0
-294 674 0
676 677 0
-678 677 0
-676 678 -677 0
298 -677 0
-298 677 0
679 680 0
-681 680 0
-679 681 -680 0
302 -680 0
-302 680 0
682 683 0
-684 683 0
-682 684 -683 0
307 -683 0
-307 683 0
685 686 0
686 -687 0
-685 687 -686 0
310 -686 0
-310 686 0
688 689 0
-690 689 0
-688 690 -689 0
314 -689 0
-314 689 0
691 692 0
-693 692 0
-691 693 -692 0
318 -692 0
-318 692 0
694 695 0
-696 695 0
-694 696 -695 0
322 -695 0
-322 695 0
697 698 0
-699 698 0
-697 699 -698 0
326 -698 0
-326 698 0
700 701 0
-702 701 0
-700 702 -701 0
331 -701 0
-331 701 0
703 704 0
-705 704 0
-703 705 -704 0
333 -704 0
-333 704 0
706 707 0
-708 707 0
-706 708 -707 0
337 -707 0
-337 707 0
709 710 0
710 -711 0
-709 711 -710 0
341 -710 0
-341 710 0
712 713 0
-714 713 0
-712 714 -713 0
345 -713 0
-345 713 0
715 716 0
716 -717 0
-715 717 -716 0
349 -716 0
-349 716 0
718 719 0
719 -720 0
-718 720 -719 0
353 -719 0
-353 719 0
721 722 0
-723 722 0
-721 723 -722 0
358 -722 0
-358 722 0
724 725 0
-726 725 0
-724 726 -725 0
360 -725 0
-360 725 0
727 728 0
-729 728 0
-727 729 -728 0
364 -728 0
-364 728 0
730 731 0
-732 731 0
-730 732 -731 0
368 -731 0
-368 731 0
733 734 0
-735 734 0
-733 735 -734 0
372 -734 0
-372 734 0
736 737 0
-738 737 0
-736 738 -737 0
376 -737 0
-376 737 0
739 740 0
740 -741 0
-739 741 -740 0
381 -740 0
-381 740 0
742 743 0
-744 743 0
-742 744 -743 0
384 -743 0
-384 743 0
745 746 0
-747 746 0
-745 747 -746 0
388 -746 0
-388 746 0
748 749 0
-750 749 0
-748 750 -749 0
392 -749 0
-392 749 0
751 752 0
752 -753 0
-751 753 -752 0
396 -752 0
-396 752 0
754 755 0
755 -756 0
-754 756 -755 0
400 -755 0
-400 755 0
757 758 0
-759 758 0
-757 759 -758 0
404 -758 0
-404 758 0
760 761 0
-762 761 0
-760 762 -761 0
409 -761 0
-409 761 0
763 764 0
-765 764 0
-763 765 -764 0
411 -764 0
-411 764 0
766 767 0
-768 767 0
-766 768 -767 0
415 -767 0
-415 767 0
769 770 0
-771 770 0
-769 771 -770 0
419 -770 0
-419 770 0
772 773 0
773 -774 0
-772 774 -773 0
423 -773 0
-423 773 0
775 776 0
-777 776 0
-775 777 -776 0
427 -776 0
-427 776 0
778 779 0
-780 779 0
-778 780 -779 0
432 -779 0
-432 779 0
781 782 0
-783 782 0
-781 783 -782 0
434 -782 0
-434 782 0
784 785 0
-786 785 0
-784 786 -785 0
438 -785 0
-438 785 0
787 788 0
-789 788 0
-787 789 -788 0
442 -788 0
-442 788 0
790 791 0
791 -792 0
-790 792 -791 0
446 -791 0
-446 791 0
793 794 0
-795 794 0
-793 795 -794 0
450 -794 0
-450 794 0
796 797 0
797 -798 0
-796 798 -797 0
455 -797 0
-455 797 0
457 0
460 0
-463 0
-466 0
469 0
-472 0
475 0
-478 0
481 0
-484 0
-487 0
-490 0
493 0
-496 0
-499 0
502 0
-505 0
508 0
-511 0
514 0
517 0
520 0
523 0
-526 0
-529 0
532 0
535 0
-538 0
-541 0
-544 0
-547 0
-550 0
553 0
556 0
-559 0
-562 0
565 0
568 0
-571 0
574 0
577 0
-580 0
-583 0
-586 0
-589 0
592 0
-595 0
598 0
601 0
604 0
-607 0
-610 0
-613 0
-616 0
-619 0
622 0
-625 0
628 0
-631 0
-634 0
637 0
640 0
643 0
646 0
-649 0
652 0
655 0
-658 0
661 0
-664 0
-667 0
670 0
673 0
-676 0
679 0
682 0
685 0
-688 0
691 0
-694 0
-697 0
-700 0
-703 0
-706 0
709 0
-712 0
715 0
718 0
-721 0
724 0
-727 0
730 0
733 0
-736 0
739 0
-742 0
-745 0
-748 0
751 0
754 0
-757 0
760 0
-763 0
766 0
-769 0
772 0
-775 0
-778 0
-781 0
-784 0
-787 0
790 0
-793 0
796 0
-799 -800 0
-799 -459 0
-799 -462 0
-799 -465 0
-799 -468 0
-799 -471 0
-799 -474 0
-799 -477 0
-799 -480 0
-799 -483 0
-799 -486 0
-799 -489 0
-799 -492 0
-799 -495 0
-799 -498 0
501 -799 0
-799 -504 0
-799 -507 0
-799 -510 0
513 -799 0
-799 -516 0
-799 -519 0
-799 -522 0
-799 -525 0
-799 -528 0
-799 -531 0
-799 -534 0
-799 -537 0
-799 -540 0
-799 -543 0
-799 -546 0
-799 -549 0
552 -799 0
-799 -555 0
-799 -558 0
-799 -561 0
-799 -564 0
-799 -567 0
-799 -570 0
-799 -573 0
-799 -576 0
-799 -579 0
-799 -582 0
-799 -585 0
588 -799 0
591 -799 0
-799 -594 0
-799 -597 0
-799 -600 0
-799 -603 0
606 -799 0
609 -799 0
612 -799 0
-799 -615 0
-799 -618 0
621 -799 0
624 -799 0
-799 -627 0
630 -799 0
-799 -633 0
636 -799 0
639 -799 0
-799 -642 0
-799 -645 0
648 -799 0
-799 -651 0
-799 -654 0
657 -799 0
660 -799 0
663 -799 0
-799 -666 0
669 -799 0
672 -799 0
-799 -675 0
-799 -678 0
-799 -681 0
-799 -684 0
687 -799 0
690 -799 0
-799 -693 0
696 -799 0
699 -799 0
-799 -702 0
705 -799 0
708 -799 0
711 -799 0
714 -799 0
717 -799 0
720 -799 0
-799 -723 0
-799 -726 0
729 -799 0
-799 -732 0
-799 -735 0
738 -799 0
741 -799 0
744 -799 0
-799 -747 0
750 -799 0
753 -799 0
756 -799 0
-799 -759 0
-799 -762 0
765 -799 0
-799 -768 0
771 -799 0
774 -799 0
-799 -777 0
-799 -780 0
-799 -783 0
-799 -786 0
-799 -789 0
792 -799 0
-799 -795 0
798 -799 0
459 -800 0
462 -800 0
-800 -465 0
-800 -468 0
471 -800 0
-800 -474 0
477 -800 0
-800 -480 0
483 -800 0
-800 -486 0
-800 -489 0
-800 -492 0
495 -800 0
-800 -498 0
-800 -501 0
504 -800 0
-800 -507 0
510 -800 0
-800 -513 0
516 -800 0
519 -800 0
522 -800 0
525 -800 0
-800 -528 0
-800 -531 0
534 -800 0
537 -800 0
-800 -540 0
-800 -543 0
-800 -546 0
-800 -549 0
-800 -552 0
555 -800 0
558 -800 0
-800 -561 0
-800 -564 0
567 -800 0
570 -800 0
-800 -573 0
576 -800 0
579 -800 0
-800 -582 0
-800 -585 0
-800 -588 0
-800 -591 0
594 -800 0
-800 -597 0
600 -800 0
603 -800 0
606 -800 0
-800 -609 0
-800 -612 0
-800 -615 0
-800 -618 0
-800 -621 0
624 -800 0
-800 -627 0
630 -800 0
-800 -633 0
-800 -636 0
639 -800 0
642 -800 0
645 -800 0
648 -800 0
-800 -651 0
654 -800 0
657 -800 0
-800 -660 0
663 -800 0
-800 -666 0
-800 -669 0
672 -800 0
675 -800 0
-800 -678 0
681 -800 0
684 -800 0
687 -800 0
-800 -690 0
693 -800 0
-800 -696 0
-800 -699 0
-800 -702 0
-800 -705 0
-800 -708 0
711 -800 0
-800 -714 0
717 -800 0
720 -800 0
-800 -723 0
726 -800 0
-800 -729 0
732 -800 0
735 -800 0
-800 -738 0
741 -800 0
-800 -744 0
-800 -747 0
-800 -750 0
753 -800 0
756 -800 0
-800 -759 0
762 -800 0
-800 -765 0
768 -800 0
-800 -771 0
774 -800 0
-800 -777 0
-800 -780 0
-800 -783 0
-800 -786 0
-800 -789 0
792 -800 0
-800 -795 0
798 -800 0
799 800 0
-801 0
-802 0
-803 0
-804 0
-805 0
-806 0
-807 0
-808 0
